c CNF
c from Selman's wff generator
p cnf 140  1600
1.0 -45 36 0
1.0 -126 -117 0
1.0 85 -140 0
1.0 31 102 0
1.0 -29 -26 0
1.0 -93 19 0
1.0 77 109 0
1.0 -29 -80 0
1.0 -115 -126 0
1.0 103 71 0
1.0 71 -115 0
1.0 -76 -72 0
1.0 97 64 0
1.0 -82 30 0
1.0 -138 79 0
1.0 -18 -77 0
1.0 -63 81 0
1.0 -12 -139 0
1.0 113 84 0
1.0 16 -22 0
1.0 86 65 0
1.0 -95 46 0
1.0 133 119 0
1.0 -79 41 0
1.0 132 -16 0
1.0 -87 113 0
1.0 15 11 0
1.0 -23 -19 0
1.0 42 -9 0
1.0 55 134 0
1.0 -113 78 0
1.0 119 -108 0
1.0 -123 100 0
1.0 -72 -62 0
1.0 -72 -6 0
1.0 25 104 0
1.0 113 84 0
1.0 -78 89 0
1.0 -26 50 0
1.0 -18 -30 0
1.0 130 73 0
1.0 134 29 0
1.0 35 130 0
1.0 -94 62 0
1.0 -6 -45 0
1.0 -133 28 0
1.0 78 -93 0
1.0 -123 -136 0
1.0 68 24 0
1.0 -53 -41 0
1.0 31 -6 0
1.0 68 -130 0
1.0 34 5 0
1.0 33 -10 0
1.0 103 -68 0
1.0 64 -20 0
1.0 44 -90 0
1.0 130 39 0
1.0 44 -49 0
1.0 38 -56 0
1.0 -61 -99 0
1.0 4 -63 0
1.0 -128 117 0
1.0 33 -126 0
1.0 -38 -7 0
1.0 -49 -133 0
1.0 -137 91 0
1.0 -136 67 0
1.0 -26 66 0
1.0 -129 -19 0
1.0 -136 95 0
1.0 81 -34 0
1.0 40 -122 0
1.0 114 -33 0
1.0 124 -41 0
1.0 108 -136 0
1.0 62 21 0
1.0 39 123 0
1.0 78 9 0
1.0 -42 -73 0
1.0 55 49 0
1.0 -82 76 0
1.0 117 -22 0
1.0 -18 -78 0
1.0 -98 -100 0
1.0 83 13 0
1.0 21 93 0
1.0 26 -32 0
1.0 -81 34 0
1.0 -110 -106 0
1.0 128 129 0
1.0 -66 108 0
1.0 68 71 0
1.0 84 -51 0
1.0 4 66 0
1.0 -98 31 0
1.0 64 75 0
1.0 -41 5 0
1.0 134 9 0
1.0 -117 115 0
1.0 46 -102 0
1.0 -12 82 0
1.0 8 -121 0
1.0 -11 -3 0
1.0 -61 108 0
1.0 87 -13 0
1.0 -45 118 0
1.0 60 115 0
1.0 28 -54 0
1.0 -8 -48 0
1.0 -92 -82 0
1.0 84 74 0
1.0 42 -33 0
1.0 -45 -129 0
1.0 -106 14 0
1.0 128 34 0
1.0 -88 -79 0
1.0 -126 -102 0
1.0 43 -82 0
1.0 -16 86 0
1.0 119 61 0
1.0 -49 127 0
1.0 140 -81 0
1.0 115 86 0
1.0 24 127 0
1.0 -88 -99 0
1.0 -41 126 0
1.0 -71 107 0
1.0 -27 -17 0
1.0 -3 45 0
1.0 -126 -130 0
1.0 76 -131 0
1.0 -118 37 0
1.0 135 55 0
1.0 -40 -32 0
1.0 139 63 0
1.0 -80 -92 0
1.0 -137 -50 0
1.0 -40 -73 0
1.0 -63 102 0
1.0 -139 -42 0
1.0 97 -21 0
1.0 -53 119 0
1.0 -42 -127 0
1.0 79 -37 0
1.0 87 -6 0
1.0 -78 139 0
1.0 101 -34 0
1.0 -76 6 0
1.0 27 -120 0
1.0 -99 -136 0
1.0 -123 67 0
1.0 -103 43 0
1.0 48 -54 0
1.0 -53 135 0
1.0 -28 -26 0
1.0 -31 62 0
1.0 -42 -24 0
1.0 -19 128 0
1.0 55 120 0
1.0 22 59 0
1.0 113 101 0
1.0 96 -40 0
1.0 -65 -9 0
1.0 71 -82 0
1.0 -105 -10 0
1.0 -138 110 0
1.0 90 -46 0
1.0 105 -136 0
1.0 -97 94 0
1.0 133 140 0
1.0 9 -121 0
1.0 62 27 0
1.0 37 21 0
1.0 -130 -132 0
1.0 38 15 0
1.0 -10 -89 0
1.0 43 42 0
1.0 -42 52 0
1.0 -33 -106 0
1.0 -132 37 0
1.0 57 128 0
1.0 -120 7 0
1.0 22 36 0
1.0 -125 98 0
1.0 139 15 0
1.0 -66 -15 0
1.0 121 -77 0
1.0 113 32 0
1.0 -19 -62 0
1.0 69 -62 0
1.0 -97 -34 0
1.0 -131 -118 0
1.0 133 30 0
1.0 45 119 0
1.0 -55 68 0
1.0 99 -138 0
1.0 -60 -133 0
1.0 -55 131 0
1.0 -24 60 0
1.0 38 60 0
1.0 -90 -33 0
1.0 11 104 0
1.0 -31 -16 0
1.0 -14 -9 0
1.0 2 83 0
1.0 73 -1 0
1.0 -61 -20 0
1.0 -80 114 0
1.0 6 74 0
1.0 -37 41 0
1.0 57 -32 0
1.0 40 24 0
1.0 -106 67 0
1.0 -67 -24 0
1.0 -44 -104 0
1.0 78 -71 0
1.0 -5 34 0
1.0 -75 -39 0
1.0 70 -25 0
1.0 48 65 0
1.0 131 108 0
1.0 132 46 0
1.0 10 -129 0
1.0 59 29 0
1.0 -63 -127 0
1.0 -25 -72 0
1.0 97 48 0
1.0 113 -76 0
1.0 43 70 0
1.0 115 -65 0
1.0 -53 -87 0
1.0 116 99 0
1.0 86 -138 0
1.0 70 22 0
1.0 70 130 0
1.0 65 -49 0
1.0 119 -25 0
1.0 -90 71 0
1.0 -17 -7 0
1.0 106 7 0
1.0 4 -64 0
1.0 -86 87 0
1.0 76 130 0
1.0 -39 61 0
1.0 -86 110 0
1.0 40 46 0
1.0 53 9 0
1.0 16 77 0
1.0 -1 -90 0
1.0 -36 -52 0
1.0 -42 -16 0
1.0 -76 81 0
1.0 51 -66 0
1.0 112 93 0
1.0 101 -55 0
1.0 -132 -111 0
1.0 -61 -87 0
1.0 139 38 0
1.0 -53 -41 0
1.0 122 75 0
1.0 -1 -66 0
1.0 -18 -130 0
1.0 -45 39 0
1.0 9 90 0
1.0 37 106 0
1.0 -3 94 0
1.0 134 -53 0
1.0 127 -54 0
1.0 -120 -131 0
1.0 -121 96 0
1.0 135 71 0
1.0 -20 89 0
1.0 -54 99 0
1.0 -52 24 0
1.0 76 14 0
1.0 68 29 0
1.0 20 10 0
1.0 106 -20 0
1.0 -90 -87 0
1.0 -36 -25 0
1.0 115 -5 0
1.0 -115 -91 0
1.0 112 135 0
1.0 44 103 0
1.0 6 21 0
1.0 -47 -118 0
1.0 81 -84 0
1.0 -109 -117 0
1.0 -122 -15 0
1.0 -105 -13 0
1.0 -7 140 0
1.0 -102 -97 0
1.0 -118 122 0
1.0 100 108 0
1.0 51 46 0
1.0 -23 126 0
1.0 -1 -42 0
1.0 54 43 0
1.0 -43 118 0
1.0 74 112 0
1.0 105 -75 0
1.0 -93 -55 0
1.0 71 2 0
1.0 104 24 0
1.0 123 23 0
1.0 64 118 0
1.0 -88 72 0
1.0 -44 26 0
1.0 -101 91 0
1.0 6 -62 0
1.0 -64 72 0
1.0 96 -51 0
1.0 -73 -90 0
1.0 68 32 0
1.0 104 13 0
1.0 39 -113 0
1.0 64 94 0
1.0 16 -104 0
1.0 -35 -139 0
1.0 49 -137 0
1.0 -87 32 0
1.0 63 15 0
1.0 28 66 0
1.0 39 -48 0
1.0 1 118 0
1.0 -82 -36 0
1.0 -34 -61 0
1.0 57 33 0
1.0 64 -41 0
1.0 56 -46 0
1.0 111 46 0
1.0 -93 -74 0
1.0 -52 -1 0
1.0 -37 -64 0
1.0 125 74 0
1.0 107 75 0
1.0 116 61 0
1.0 -106 -29 0
1.0 -74 122 0
1.0 -56 119 0
1.0 -89 100 0
1.0 -68 24 0
1.0 -36 -38 0
1.0 -82 137 0
1.0 -14 116 0
1.0 -89 44 0
1.0 -129 2 0
1.0 -121 92 0
1.0 -51 -54 0
1.0 -77 -78 0
1.0 -115 86 0
1.0 83 -27 0
1.0 -2 -25 0
1.0 69 114 0
1.0 -116 -6 0
1.0 98 63 0
1.0 -117 106 0
1.0 43 105 0
1.0 -51 -107 0
1.0 -134 -131 0
1.0 -16 -86 0
1.0 59 106 0
1.0 -112 104 0
1.0 -27 15 0
1.0 120 63 0
1.0 28 -81 0
1.0 48 114 0
1.0 104 -18 0
1.0 103 121 0
1.0 87 65 0
1.0 -29 45 0
1.0 59 63 0
1.0 126 114 0
1.0 -55 -102 0
1.0 75 21 0
1.0 39 37 0
1.0 18 -80 0
1.0 4 77 0
1.0 -122 7 0
1.0 -70 5 0
1.0 119 139 0
1.0 -100 20 0
1.0 -41 -136 0
1.0 -32 88 0
1.0 27 102 0
1.0 39 34 0
1.0 41 -10 0
1.0 15 -138 0
1.0 137 -94 0
1.0 -114 19 0
1.0 -14 62 0
1.0 -10 33 0
1.0 134 107 0
1.0 140 131 0
1.0 1 113 0
1.0 110 -35 0
1.0 129 -33 0
1.0 -52 53 0
1.0 -114 -68 0
1.0 100 -65 0
1.0 -31 88 0
1.0 78 -40 0
1.0 -12 -79 0
1.0 -114 -100 0
1.0 133 10 0
1.0 -62 39 0
1.0 107 79 0
1.0 3 38 0
1.0 125 6 0
1.0 -45 133 0
1.0 71 93 0
1.0 53 125 0
1.0 -134 69 0
1.0 -108 -57 0
1.0 -136 -108 0
1.0 6 -19 0
1.0 24 94 0
1.0 -86 53 0
1.0 5 23 0
1.0 -7 67 0
1.0 135 -50 0
1.0 106 -4 0
1.0 -112 -35 0
1.0 -53 -130 0
1.0 83 19 0
1.0 71 -130 0
1.0 -12 105 0
1.0 32 92 0
1.0 -1 -73 0
1.0 77 23 0
1.0 57 -26 0
1.0 15 -131 0
1.0 -9 -50 0
1.0 40 30 0
1.0 135 5 0
1.0 97 -87 0
1.0 20 -40 0
1.0 63 -131 0
1.0 -17 28 0
1.0 -18 135 0
1.0 -45 -114 0
1.0 -4 -120 0
1.0 124 -63 0
1.0 9 76 0
1.0 -116 101 0
1.0 92 -128 0
1.0 -16 107 0
1.0 101 128 0
1.0 -102 -26 0
1.0 -5 -83 0
1.0 5 128 0
1.0 64 106 0
1.0 -66 26 0
1.0 -14 95 0
1.0 62 124 0
1.0 111 -122 0
1.0 8 116 0
1.0 58 140 0
1.0 -128 69 0
1.0 -34 -117 0
1.0 -3 27 0
1.0 122 101 0
1.0 85 106 0
1.0 -88 -94 0
1.0 -69 -23 0
1.0 23 107 0
1.0 36 125 0
1.0 102 -10 0
1.0 -36 6 0
1.0 107 22 0
1.0 -128 -126 0
1.0 79 92 0
1.0 -115 -137 0
1.0 104 -44 0
1.0 28 -68 0
1.0 -78 -98 0
1.0 -104 -71 0
1.0 -93 -51 0
1.0 37 -87 0
1.0 -39 46 0
1.0 43 117 0
1.0 21 18 0
1.0 86 74 0
1.0 -32 -129 0
1.0 59 126 0
1.0 -36 -47 0
1.0 133 107 0
1.0 12 30 0
1.0 6 55 0
1.0 -73 65 0
1.0 139 111 0
1.0 100 35 0
1.0 21 91 0
1.0 -137 -121 0
1.0 87 -35 0
1.0 64 65 0
1.0 -120 72 0
1.0 137 -30 0
1.0 1 -109 0
1.0 -4 50 0
1.0 -140 -8 0
1.0 -128 -67 0
1.0 101 7 0
1.0 -71 44 0
1.0 -116 -48 0
1.0 -78 -31 0
1.0 139 132 0
1.0 41 16 0
1.0 24 104 0
1.0 -30 -23 0
1.0 29 -118 0
1.0 22 -107 0
1.0 -15 -111 0
1.0 1 -75 0
1.0 66 -67 0
1.0 83 -25 0
1.0 -129 43 0
1.0 65 -62 0
1.0 39 23 0
1.0 129 62 0
1.0 -33 26 0
1.0 101 125 0
1.0 -52 -32 0
1.0 -57 139 0
1.0 42 -76 0
1.0 138 72 0
1.0 -94 -112 0
1.0 -34 14 0
1.0 -39 -41 0
1.0 26 -130 0
1.0 -22 -17 0
1.0 -16 31 0
1.0 107 -48 0
1.0 -119 -84 0
1.0 56 -96 0
1.0 110 100 0
1.0 1 113 0
1.0 -103 -32 0
1.0 48 35 0
1.0 -65 47 0
1.0 -94 -4 0
1.0 88 134 0
1.0 -90 19 0
1.0 119 -105 0
1.0 78 74 0
1.0 105 109 0
1.0 -3 87 0
1.0 -134 -57 0
1.0 60 92 0
1.0 85 24 0
1.0 -42 100 0
1.0 -65 19 0
1.0 92 5 0
1.0 113 -65 0
1.0 12 4 0
1.0 -60 -1 0
1.0 -92 110 0
1.0 133 136 0
1.0 96 22 0
1.0 40 -54 0
1.0 58 63 0
1.0 128 -115 0
1.0 119 49 0
1.0 49 94 0
1.0 64 5 0
1.0 -140 -106 0
1.0 -128 6 0
1.0 60 -136 0
1.0 59 66 0
1.0 41 15 0
1.0 63 -48 0
1.0 -2 75 0
1.0 -80 -9 0
1.0 114 -74 0
1.0 -80 -8 0
1.0 -4 8 0
1.0 -73 -124 0
1.0 -139 13 0
1.0 61 50 0
1.0 -125 5 0
1.0 13 -110 0
1.0 -44 -36 0
1.0 -43 77 0
1.0 -84 97 0
1.0 -81 -77 0
1.0 -89 122 0
1.0 -32 33 0
1.0 -38 59 0
1.0 29 -83 0
1.0 118 125 0
1.0 61 35 0
1.0 132 -36 0
1.0 112 10 0
1.0 132 11 0
1.0 44 -1 0
1.0 -59 -120 0
1.0 63 27 0
1.0 12 -73 0
1.0 -107 -128 0
1.0 23 -98 0
1.0 107 -43 0
1.0 -54 -123 0
1.0 124 22 0
1.0 -2 28 0
1.0 -55 7 0
1.0 -79 25 0
1.0 13 76 0
1.0 33 -36 0
1.0 -79 -84 0
1.0 -67 80 0
1.0 -101 -126 0
1.0 14 80 0
1.0 -87 130 0
1.0 -14 132 0
1.0 68 -75 0
1.0 -111 91 0
1.0 34 -57 0
1.0 136 -129 0
1.0 115 -101 0
1.0 40 -85 0
1.0 74 -50 0
1.0 -42 -81 0
1.0 16 -34 0
1.0 124 27 0
1.0 -83 -75 0
1.0 64 127 0
1.0 87 -95 0
1.0 -39 -83 0
1.0 133 123 0
1.0 64 -33 0
1.0 66 71 0
1.0 98 99 0
1.0 -33 -45 0
1.0 -31 -15 0
1.0 -110 21 0
1.0 -104 -76 0
1.0 -58 -41 0
1.0 73 -133 0
1.0 64 124 0
1.0 82 -116 0
1.0 -21 41 0
1.0 56 66 0
1.0 86 133 0
1.0 68 -14 0
1.0 -55 -135 0
1.0 -128 26 0
1.0 -9 -34 0
1.0 10 133 0
1.0 -34 -137 0
1.0 -62 110 0
1.0 103 7 0
1.0 21 -62 0
1.0 57 121 0
1.0 -6 47 0
1.0 -80 -26 0
1.0 -18 31 0
1.0 27 -60 0
1.0 -30 -114 0
1.0 121 13 0
1.0 -75 -36 0
1.0 17 137 0
1.0 43 -128 0
1.0 -13 2 0
1.0 -33 51 0
1.0 110 -82 0
1.0 -56 104 0
1.0 117 13 0
1.0 49 112 0
1.0 -108 75 0
1.0 -62 -124 0
1.0 -126 64 0
1.0 -114 -47 0
1.0 -128 86 0
1.0 -50 74 0
1.0 -87 -115 0
1.0 86 118 0
1.0 52 -6 0
1.0 130 -56 0
1.0 -119 -13 0
1.0 59 71 0
1.0 -16 119 0
1.0 -53 -28 0
1.0 -3 -29 0
1.0 6 52 0
1.0 58 64 0
1.0 119 -79 0
1.0 91 15 0
1.0 -86 55 0
1.0 -5 27 0
1.0 119 116 0
1.0 109 123 0
1.0 -124 70 0
1.0 100 125 0
1.0 -7 124 0
1.0 -34 -138 0
1.0 53 68 0
1.0 -94 -20 0
1.0 -136 -124 0
1.0 -107 -90 0
1.0 -19 -63 0
1.0 48 24 0
1.0 -8 5 0
1.0 2 42 0
1.0 -110 63 0
1.0 -82 -60 0
1.0 43 73 0
1.0 -23 26 0
1.0 89 -97 0
1.0 120 -36 0
1.0 41 126 0
1.0 -28 -47 0
1.0 110 67 0
1.0 -126 55 0
1.0 127 30 0
1.0 56 137 0
1.0 -93 -70 0
1.0 106 50 0
1.0 36 87 0
1.0 134 -6 0
1.0 72 120 0
1.0 -34 2 0
1.0 31 -124 0
1.0 -120 -81 0
1.0 11 -89 0
1.0 -139 63 0
1.0 -9 31 0
1.0 -36 -18 0
1.0 138 118 0
1.0 120 112 0
1.0 -95 -83 0
1.0 24 45 0
1.0 134 -10 0
1.0 72 -132 0
1.0 -23 126 0
1.0 4 48 0
1.0 26 51 0
1.0 23 -85 0
1.0 28 110 0
1.0 -15 57 0
1.0 66 -95 0
1.0 -86 -28 0
1.0 13 21 0
1.0 68 -52 0
1.0 -103 -49 0
1.0 -134 111 0
1.0 -81 -12 0
1.0 -68 -18 0
1.0 -112 103 0
1.0 130 68 0
1.0 89 52 0
1.0 -103 35 0
1.0 83 -66 0
1.0 -37 -10 0
1.0 -21 -31 0
1.0 -48 33 0
1.0 -135 -73 0
1.0 -1 -103 0
1.0 -14 -5 0
1.0 40 -73 0
1.0 139 90 0
1.0 99 -17 0
1.0 48 -81 0
1.0 -114 -9 0
1.0 -81 -52 0
1.0 15 79 0
1.0 84 -134 0
1.0 -67 45 0
1.0 -134 -24 0
1.0 -40 -110 0
1.0 51 139 0
1.0 -7 -17 0
1.0 69 -83 0
1.0 -22 -59 0
1.0 -52 -114 0
1.0 19 52 0
1.0 -75 -1 0
1.0 111 35 0
1.0 33 103 0
1.0 -120 35 0
1.0 -118 -17 0
1.0 -75 -100 0
1.0 -73 -50 0
1.0 -102 6 0
1.0 7 -67 0
1.0 -101 -72 0
1.0 34 42 0
1.0 76 21 0
1.0 37 -50 0
1.0 -9 -15 0
1.0 65 60 0
1.0 66 -136 0
1.0 62 72 0
1.0 3 46 0
1.0 87 49 0
1.0 -70 -110 0
1.0 -19 126 0
1.0 -140 32 0
1.0 -92 1 0
1.0 -136 11 0
1.0 -83 -137 0
1.0 -43 -96 0
1.0 5 -31 0
1.0 140 86 0
1.0 72 -115 0
1.0 -7 -12 0
1.0 -13 85 0
1.0 96 63 0
1.0 -60 -5 0
1.0 -100 -104 0
1.0 134 -101 0
1.0 47 -78 0
1.0 53 55 0
1.0 67 -46 0
1.0 -130 -133 0
1.0 -55 -10 0
1.0 -14 -105 0
1.0 -68 26 0
1.0 127 117 0
1.0 55 -64 0
1.0 118 62 0
1.0 -107 -45 0
1.0 38 -68 0
1.0 78 -24 0
1.0 129 2 0
1.0 -27 4 0
1.0 121 30 0
1.0 94 -57 0
1.0 -118 -30 0
1.0 75 -97 0
1.0 24 -81 0
1.0 105 -130 0
1.0 131 117 0
1.0 120 -125 0
1.0 -15 -74 0
1.0 130 -137 0
1.0 27 -14 0
1.0 -110 -90 0
1.0 -31 -135 0
1.0 -124 -6 0
1.0 -122 -96 0
1.0 81 -19 0
1.0 92 -55 0
1.0 51 -104 0
1.0 118 -98 0
1.0 -48 -109 0
1.0 -104 -34 0
1.0 39 21 0
1.0 -117 52 0
1.0 70 41 0
1.0 -95 78 0
1.0 -42 10 0
1.0 -108 119 0
1.0 -87 46 0
1.0 -80 -26 0
1.0 -46 58 0
1.0 -109 119 0
1.0 19 -93 0
1.0 -31 -22 0
1.0 -32 -59 0
1.0 38 -56 0
1.0 101 105 0
1.0 130 32 0
1.0 90 17 0
1.0 -136 137 0
1.0 -90 -16 0
1.0 38 104 0
1.0 23 2 0
1.0 57 79 0
1.0 44 79 0
1.0 110 77 0
1.0 -94 -126 0
1.0 -123 -73 0
1.0 89 -90 0
1.0 54 -104 0
1.0 -106 120 0
1.0 59 -41 0
1.0 -119 -98 0
1.0 35 -65 0
1.0 -51 125 0
1.0 -58 39 0
1.0 -129 17 0
1.0 -120 -46 0
1.0 -26 -113 0
1.0 14 -7 0
1.0 -104 -43 0
1.0 -107 89 0
1.0 73 -62 0
1.0 -101 -14 0
1.0 -30 128 0
1.0 -33 107 0
1.0 80 -60 0
1.0 -66 48 0
1.0 91 26 0
1.0 -115 14 0
1.0 75 122 0
1.0 -135 34 0
1.0 22 115 0
1.0 -81 126 0
1.0 -45 -113 0
1.0 21 -59 0
1.0 85 28 0
1.0 -41 -101 0
1.0 82 -4 0
1.0 -38 136 0
1.0 -110 133 0
1.0 -118 84 0
1.0 -57 -45 0
1.0 104 134 0
1.0 -21 76 0
1.0 36 -75 0
1.0 79 -49 0
1.0 44 15 0
1.0 -7 -64 0
1.0 135 8 0
1.0 1 -85 0
1.0 133 53 0
1.0 -21 -77 0
1.0 114 82 0
1.0 136 8 0
1.0 42 80 0
1.0 -4 -2 0
1.0 9 5 0
1.0 89 -41 0
1.0 94 -17 0
1.0 94 114 0
1.0 -56 101 0
1.0 109 16 0
1.0 96 -79 0
1.0 -80 -56 0
1.0 -61 134 0
1.0 -34 -100 0
1.0 -117 100 0
1.0 -73 -29 0
1.0 129 -86 0
1.0 102 107 0
1.0 -25 -15 0
1.0 111 -69 0
1.0 -26 -10 0
1.0 -100 125 0
1.0 -85 -31 0
1.0 -27 -120 0
1.0 -20 -58 0
1.0 25 130 0
1.0 -5 -1 0
1.0 -69 -131 0
1.0 -140 -76 0
1.0 61 39 0
1.0 -69 -10 0
1.0 129 80 0
1.0 -138 1 0
1.0 -131 -10 0
1.0 -10 -60 0
1.0 50 48 0
1.0 123 109 0
1.0 7 -27 0
1.0 36 26 0
1.0 105 -98 0
1.0 -99 -22 0
1.0 -31 54 0
1.0 -114 53 0
1.0 -100 -7 0
1.0 -115 -81 0
1.0 107 33 0
1.0 59 88 0
1.0 -46 59 0
1.0 -80 -109 0
1.0 23 -37 0
1.0 90 125 0
1.0 -132 -92 0
1.0 -32 -116 0
1.0 8 6 0
1.0 -93 -27 0
1.0 85 75 0
1.0 -43 96 0
1.0 132 -3 0
1.0 -128 -81 0
1.0 -32 121 0
1.0 97 -34 0
1.0 39 -63 0
1.0 -89 120 0
1.0 54 -132 0
1.0 88 -52 0
1.0 55 83 0
1.0 24 10 0
1.0 -131 -108 0
1.0 2 40 0
1.0 103 81 0
1.0 -60 -22 0
1.0 14 -3 0
1.0 55 -91 0
1.0 34 61 0
1.0 -71 33 0
1.0 1 90 0
1.0 130 -58 0
1.0 139 74 0
1.0 96 -86 0
1.0 89 100 0
1.0 -50 -109 0
1.0 -29 -123 0
1.0 16 111 0
1.0 60 27 0
1.0 -84 -59 0
1.0 -133 -1 0
1.0 87 31 0
1.0 130 125 0
1.0 -94 -9 0
1.0 -131 121 0
1.0 91 101 0
1.0 127 -39 0
1.0 98 -58 0
1.0 59 12 0
1.0 42 94 0
1.0 78 -71 0
1.0 -53 15 0
1.0 -96 84 0
1.0 105 135 0
1.0 -53 -113 0
1.0 126 -51 0
1.0 88 34 0
1.0 -75 71 0
1.0 -1 10 0
1.0 -24 -35 0
1.0 118 -71 0
1.0 -65 -78 0
1.0 -51 47 0
1.0 97 116 0
1.0 -10 -72 0
1.0 -3 62 0
1.0 72 -54 0
1.0 -89 4 0
1.0 74 -111 0
1.0 -48 -95 0
1.0 -1 -64 0
1.0 -40 27 0
1.0 -99 -84 0
1.0 -6 -89 0
1.0 2 -20 0
1.0 24 -108 0
1.0 -78 -25 0
1.0 -120 -73 0
1.0 -136 77 0
1.0 -104 77 0
1.0 20 79 0
1.0 -27 126 0
1.0 -6 136 0
1.0 -104 135 0
1.0 20 -81 0
1.0 -13 111 0
1.0 48 56 0
1.0 -132 130 0
1.0 68 -94 0
1.0 -79 -139 0
1.0 -135 -102 0
1.0 -97 -98 0
1.0 -39 26 0
1.0 136 94 0
1.0 9 -105 0
1.0 94 126 0
1.0 -79 48 0
1.0 -47 98 0
1.0 -60 74 0
1.0 -32 137 0
1.0 -22 106 0
1.0 60 42 0
1.0 6 -114 0
1.0 -99 79 0
1.0 127 95 0
1.0 -53 -16 0
1.0 -90 -71 0
1.0 68 -119 0
1.0 -85 32 0
1.0 -73 -27 0
1.0 140 -139 0
1.0 -78 17 0
1.0 -112 49 0
1.0 -65 30 0
1.0 -101 123 0
1.0 -101 46 0
1.0 77 84 0
1.0 -110 -120 0
1.0 118 125 0
1.0 -1 -61 0
1.0 -110 75 0
1.0 104 132 0
1.0 -114 -42 0
1.0 -87 68 0
1.0 11 -28 0
1.0 -8 -121 0
1.0 105 -16 0
1.0 -76 19 0
1.0 -93 74 0
1.0 -65 127 0
1.0 -28 -71 0
1.0 -139 92 0
1.0 -120 -32 0
1.0 -12 -79 0
1.0 -94 12 0
1.0 -30 -20 0
1.0 93 14 0
1.0 140 18 0
1.0 89 -28 0
1.0 -120 -1 0
1.0 -32 85 0
1.0 24 -56 0
1.0 68 -103 0
1.0 -122 -81 0
1.0 -94 -116 0
1.0 -134 -7 0
1.0 35 123 0
1.0 -123 124 0
1.0 69 -57 0
1.0 113 79 0
1.0 -41 74 0
1.0 -15 -74 0
1.0 50 61 0
1.0 -41 125 0
1.0 13 -104 0
1.0 76 -20 0
1.0 -78 16 0
1.0 84 4 0
1.0 140 -81 0
1.0 -38 -140 0
1.0 61 -26 0
1.0 -10 94 0
1.0 58 -130 0
1.0 -10 -83 0
1.0 -99 90 0
1.0 94 -22 0
1.0 102 -92 0
1.0 -92 8 0
1.0 -34 90 0
1.0 43 -98 0
1.0 -88 -84 0
1.0 27 -80 0
1.0 29 -10 0
1.0 -31 -86 0
1.0 -37 -100 0
1.0 -108 77 0
1.0 27 113 0
1.0 71 110 0
1.0 -54 -124 0
1.0 63 -22 0
1.0 -32 90 0
1.0 36 -8 0
1.0 108 -46 0
1.0 -123 60 0
1.0 -33 -121 0
1.0 -91 107 0
1.0 -91 99 0
1.0 -120 8 0
1.0 -98 -38 0
1.0 45 127 0
1.0 -32 126 0
1.0 45 -23 0
1.0 3 -100 0
1.0 -66 23 0
1.0 122 -40 0
1.0 -48 133 0
1.0 -30 -45 0
1.0 -32 63 0
1.0 -49 -34 0
1.0 56 100 0
1.0 59 -72 0
1.0 95 -108 0
1.0 8 30 0
1.0 22 9 0
1.0 -53 -58 0
1.0 121 73 0
1.0 -106 85 0
1.0 -45 -12 0
1.0 -84 90 0
1.0 -57 88 0
1.0 -117 -10 0
1.0 18 -39 0
1.0 96 -36 0
1.0 -108 -23 0
1.0 -108 86 0
1.0 -98 33 0
1.0 -122 62 0
1.0 -10 -51 0
1.0 -60 -82 0
1.0 121 -35 0
1.0 70 23 0
1.0 -45 116 0
1.0 61 64 0
1.0 96 -137 0
1.0 -59 137 0
1.0 47 -80 0
1.0 22 39 0
1.0 -74 52 0
1.0 74 -89 0
1.0 -64 -11 0
1.0 74 12 0
1.0 -9 60 0
1.0 -57 -84 0
1.0 24 48 0
1.0 87 114 0
1.0 25 -124 0
1.0 -72 -63 0
1.0 -74 66 0
1.0 77 -121 0
1.0 41 -4 0
1.0 88 -7 0
1.0 54 130 0
1.0 104 -62 0
1.0 -45 -43 0
1.0 -106 23 0
1.0 88 91 0
1.0 -72 -84 0
1.0 87 122 0
1.0 128 129 0
1.0 119 -20 0
1.0 81 -62 0
1.0 -105 17 0
1.0 -39 -73 0
1.0 24 -16 0
1.0 99 122 0
1.0 -103 -136 0
1.0 -125 -84 0
1.0 104 35 0
1.0 97 116 0
1.0 -132 131 0
1.0 64 -100 0
1.0 115 -29 0
1.0 -10 -109 0
1.0 105 -57 0
1.0 1 -56 0
1.0 91 99 0
1.0 -74 38 0
1.0 -28 -98 0
1.0 58 113 0
1.0 -2 80 0
1.0 -48 82 0
1.0 -139 -48 0
1.0 -103 14 0
1.0 -112 110 0
1.0 -7 67 0
1.0 -25 -66 0
1.0 -38 24 0
1.0 104 78 0
1.0 20 34 0
1.0 81 124 0
1.0 -138 -118 0
1.0 88 -57 0
1.0 124 129 0
1.0 -115 -91 0
1.0 -64 126 0
1.0 36 113 0
1.0 135 -40 0
1.0 -55 54 0
1.0 -11 85 0
1.0 99 -75 0
1.0 -63 58 0
1.0 8 -77 0
1.0 -62 -137 0
1.0 109 -95 0
1.0 -134 35 0
1.0 -89 -58 0
1.0 2 -63 0
1.0 137 75 0
1.0 -132 -32 0
1.0 -108 133 0
1.0 -129 -4 0
1.0 99 -10 0
1.0 45 -4 0
1.0 -61 84 0
1.0 6 116 0
1.0 50 63 0
1.0 94 18 0
1.0 -10 -111 0
1.0 -115 -74 0
1.0 84 -19 0
1.0 -22 -28 0
1.0 112 -73 0
1.0 -48 -25 0
1.0 -88 41 0
1.0 -59 39 0
1.0 9 -51 0
1.0 125 24 0
1.0 42 83 0
1.0 111 -38 0
1.0 110 9 0
1.0 -33 -38 0
1.0 79 -113 0
1.0 11 122 0
1.0 32 132 0
1.0 -16 59 0
1.0 -1 -140 0
1.0 38 125 0
1.0 133 112 0
1.0 10 -139 0
1.0 -111 -26 0
1.0 -8 9 0
1.0 140 2 0
1.0 -60 138 0
1.0 138 53 0
1.0 38 85 0
1.0 57 67 0
1.0 65 62 0
1.0 88 -98 0
1.0 -107 -16 0
1.0 -17 -48 0
1.0 -46 54 0
1.0 -107 27 0
1.0 112 121 0
1.0 -48 -90 0
1.0 12 -107 0
1.0 65 24 0
1.0 -39 49 0
1.0 -97 119 0
1.0 32 -126 0
1.0 13 -124 0
1.0 105 36 0
1.0 -126 -104 0
1.0 -71 -131 0
1.0 14 12 0
1.0 -61 23 0
1.0 1 96 0
1.0 82 -65 0
1.0 -49 32 0
1.0 68 87 0
1.0 51 -7 0
1.0 -137 7 0
1.0 18 -3 0
1.0 -26 29 0
1.0 124 114 0
1.0 38 -90 0
1.0 -121 95 0
1.0 -42 -122 0
1.0 -129 -10 0
1.0 -17 51 0
1.0 -53 -58 0
1.0 -86 67 0
1.0 -40 -23 0
1.0 112 -13 0
1.0 108 123 0
1.0 -104 -101 0
1.0 -111 -34 0
1.0 85 -72 0
1.0 -130 -133 0
1.0 59 -39 0
1.0 61 139 0
1.0 -11 -61 0
1.0 -43 125 0
1.0 -86 88 0
1.0 122 35 0
1.0 107 -64 0
1.0 56 -136 0
1.0 -35 73 0
1.0 110 127 0
1.0 -110 -22 0
1.0 9 -79 0
1.0 -37 -96 0
1.0 138 2 0
1.0 -64 134 0
1.0 -24 91 0
1.0 -24 -48 0
1.0 35 136 0
1.0 -18 95 0
1.0 -34 138 0
1.0 93 -59 0
1.0 61 -39 0
1.0 32 128 0
1.0 -78 -137 0
1.0 -45 -65 0
1.0 -61 -116 0
1.0 -71 -41 0
1.0 39 -85 0
1.0 -3 35 0
1.0 73 -94 0
1.0 81 90 0
1.0 -86 -133 0
1.0 58 -74 0
1.0 50 -12 0
1.0 -53 -19 0
1.0 -103 -118 0
1.0 13 -25 0
1.0 118 75 0
1.0 -24 -68 0
1.0 -61 -57 0
1.0 -131 30 0
1.0 41 -11 0
1.0 29 -104 0
1.0 -81 -128 0
1.0 13 -125 0
1.0 59 -87 0
1.0 15 -127 0
1.0 44 12 0
1.0 -41 -9 0
1.0 19 92 0
1.0 56 -80 0
1.0 -68 -135 0
1.0 -119 127 0
1.0 -73 -120 0
1.0 106 31 0
1.0 42 -75 0
1.0 83 -116 0
1.0 68 -59 0
1.0 -139 47 0
1.0 41 67 0
1.0 53 -77 0
1.0 -57 35 0
1.0 66 -94 0
1.0 29 -74 0
1.0 -49 -73 0
1.0 -131 -82 0
1.0 128 76 0
1.0 2 61 0
1.0 138 104 0
1.0 -139 111 0
1.0 65 -108 0
1.0 41 -80 0
1.0 13 138 0
1.0 -79 22 0
1.0 -98 -47 0
1.0 108 -3 0
1.0 106 -52 0
1.0 23 -96 0
1.0 63 -58 0
1.0 138 105 0
1.0 102 117 0
1.0 -139 -6 0
1.0 53 62 0
1.0 -65 68 0
1.0 -119 6 0
1.0 -101 22 0
1.0 -80 -129 0
1.0 -94 39 0
1.0 -16 100 0
1.0 -105 63 0
1.0 125 24 0
1.0 -91 23 0
1.0 -28 -73 0
1.0 95 19 0
1.0 -8 -139 0
1.0 38 57 0
1.0 16 -111 0
1.0 -34 35 0
1.0 58 34 0
1.0 -56 -5 0
1.0 -78 8 0
1.0 26 84 0
1.0 -83 -35 0
1.0 92 -10 0
1.0 -121 97 0
1.0 132 85 0
1.0 119 98 0
1.0 -103 134 0
1.0 -2 50 0
1.0 134 -137 0
1.0 32 -54 0
1.0 -64 86 0
1.0 43 38 0
1.0 -122 -89 0
1.0 -46 140 0
1.0 134 -112 0
1.0 22 119 0
1.0 -116 82 0
1.0 -136 5 0
1.0 -91 -79 0
1.0 117 -20 0
1.0 108 111 0
1.0 110 -52 0
1.0 -24 68 0
1.0 47 120 0
1.0 62 10 0
1.0 -14 -17 0
1.0 -96 -80 0
1.0 99 125 0
1.0 -95 88 0
1.0 140 100 0
1.0 28 -126 0
1.0 -106 128 0
1.0 -137 124 0
1.0 -1 -62 0
1.0 2 -72 0
1.0 56 59 0
1.0 -7 107 0
1.0 67 -102 0
1.0 88 98 0
1.0 -86 -124 0
1.0 -108 -26 0
1.0 88 -67 0
1.0 138 93 0
1.0 12 75 0
1.0 42 -137 0
1.0 98 54 0
1.0 -12 -89 0
1.0 73 39 0
1.0 64 132 0
1.0 -59 72 0
1.0 -25 8 0
1.0 83 -33 0
1.0 -29 -79 0
1.0 132 12 0
1.0 -100 130 0
1.0 -29 -139 0
1.0 -131 80 0
1.0 -12 62 0
1.0 -69 75 0
1.0 -107 -127 0
1.0 -65 85 0
1.0 96 15 0
1.0 -5 20 0
1.0 -19 20 0
1.0 100 -86 0
1.0 7 -23 0
1.0 -97 80 0
1.0 67 -80 0
1.0 25 -41 0
1.0 55 107 0
1.0 -127 124 0
1.0 4 -75 0
1.0 -20 70 0
1.0 -92 81 0
1.0 -21 -49 0
1.0 -129 29 0
1.0 -70 -126 0
1.0 93 -28 0
1.0 -11 133 0
1.0 -67 -96 0
1.0 -26 -51 0
1.0 132 76 0
1.0 -124 -137 0
1.0 -26 -38 0
1.0 -23 -117 0
1.0 4 120 0
1.0 113 137 0
1.0 -92 -6 0
1.0 -57 100 0
1.0 35 120 0
1.0 -117 19 0
1.0 -56 -115 0
1.0 91 -34 0
1.0 -14 -108 0
1.0 105 139 0
1.0 5 11 0
1.0 -110 128 0
1.0 107 -28 0
1.0 -46 -14 0
1.0 129 -40 0
1.0 74 -94 0
1.0 -62 4 0
1.0 -2 98 0
1.0 108 -115 0
1.0 -102 34 0
1.0 61 -106 0
1.0 119 -96 0
1.0 136 108 0
1.0 62 -80 0
1.0 84 -88 0
1.0 -46 90 0
1.0 -65 18 0
1.0 -51 -33 0
1.0 -138 -107 0
1.0 -62 7 0
1.0 -114 130 0
1.0 69 2 0
1.0 -90 -27 0
1.0 117 49 0
1.0 66 -99 0
1.0 -131 -22 0
1.0 -128 27 0
1.0 -33 48 0
1.0 37 -94 0
1.0 -96 60 0
1.0 87 75 0
1.0 -124 49 0
1.0 7 -30 0
1.0 -51 112 0
1.0 -139 90 0
1.0 138 54 0
1.0 -7 -79 0
1.0 138 -117 0
1.0 52 48 0
1.0 -96 -110 0
1.0 -140 108 0
1.0 -80 -86 0
1.0 -35 36 0
1.0 90 -5 0
1.0 83 -65 0
1.0 42 -66 0
1.0 -113 31 0
1.0 140 -72 0
1.0 39 -131 0
1.0 76 -137 0
1.0 32 -23 0
1.0 -28 -68 0
1.0 133 136 0
1.0 -61 75 0
1.0 -105 -116 0
1.0 -48 -132 0
1.0 122 13 0
1.0 10 119 0
1.0 2 29 0
1.0 -97 -100 0
1.0 -95 49 0
1.0 123 -111 0
1.0 87 -9 0
